(set-logic ALL)
(synth-fun Condition_0 ((mainv%_76_0 Int) (vfind_condition_0 Int) (mainv%loop.bound_0 Int) (mainv%_27_0 Int) (mainv%_32_0 Bool) (mainv%or.cond69.i.i_0 Bool) (mainv%or.cond70.i.i_0 Bool) (mainv%or.cond68.i.i_0 Bool) (mainv%Pivot104.i.i_0 Bool) (mainv%SwitchLeaf102.i.i_0 Bool) (mainv%SwitchLeaf100.i.i_0 Bool) (mainv%_40_0 Int) (mainv%_41_0 Bool) (mainv%..i.i_0 Int) (mainv%_43_0 Bool) (mainv%_44_0 Bool) (mainv%.71.i.i_0 Int) (mainv%.73.i.i_0 Int) (mainv%_45_0 Bool) (mainv%or.cond76.i.i_0 Bool) (mainv%.057.i.i_0 Int) (mainv%.053.i.i_0 Int) (mainv%.036.i.i_0 Int) (mainv%_73_0 Int) ) Bool
)
(define-fun mainv_75!_Cond ((mainv%_76_0 Int) (vfind_condition_0 Int) (mainv%loop.bound_0 Int) (mainv%_27_0 Int) (mainv%_32_0 Bool) (mainv%or.cond69.i.i_0 Bool) (mainv%or.cond70.i.i_0 Bool) (mainv%or.cond68.i.i_0 Bool) (mainv%Pivot104.i.i_0 Bool) (mainv%SwitchLeaf102.i.i_0 Bool) (mainv%SwitchLeaf100.i.i_0 Bool) (mainv%_40_0 Int) (mainv%_41_0 Bool) (mainv%..i.i_0 Int) (mainv%_43_0 Bool) (mainv%_44_0 Bool) (mainv%.71.i.i_0 Int) (mainv%.73.i.i_0 Int) (mainv%_45_0 Bool) (mainv%or.cond76.i.i_0 Bool) (mainv%.057.i.i_0 Int) (mainv%.053.i.i_0 Int) (mainv%.036.i.i_0 Int) (mainv%_73_0 Int) ) Bool
	true
)
(define-fun mainv_75!_Then ((mainv%_76_0 Int) (vfind_condition_0 Int) (mainv%loop.bound_0 Int) (mainv%_27_0 Int) (mainv%_32_0 Bool) (mainv%or.cond69.i.i_0 Bool) (mainv%or.cond70.i.i_0 Bool) (mainv%or.cond68.i.i_0 Bool) (mainv%Pivot104.i.i_0 Bool) (mainv%SwitchLeaf102.i.i_0 Bool) (mainv%SwitchLeaf100.i.i_0 Bool) (mainv%_40_0 Int) (mainv%_41_0 Bool) (mainv%..i.i_0 Int) (mainv%_43_0 Bool) (mainv%_44_0 Bool) (mainv%.71.i.i_0 Int) (mainv%.73.i.i_0 Int) (mainv%_45_0 Bool) (mainv%or.cond76.i.i_0 Bool) (mainv%.057.i.i_0 Int) (mainv%.053.i.i_0 Int) (mainv%.036.i.i_0 Int) (mainv%_73_0 Int) ) Bool
	true
)
(define-fun mainv_75!_Else ((mainv%_76_0 Int) (vfind_condition_0 Int) (mainv%loop.bound_0 Int) (mainv%_27_0 Int) (mainv%_32_0 Bool) (mainv%or.cond69.i.i_0 Bool) (mainv%or.cond70.i.i_0 Bool) (mainv%or.cond68.i.i_0 Bool) (mainv%Pivot104.i.i_0 Bool) (mainv%SwitchLeaf102.i.i_0 Bool) (mainv%SwitchLeaf100.i.i_0 Bool) (mainv%_40_0 Int) (mainv%_41_0 Bool) (mainv%..i.i_0 Int) (mainv%_43_0 Bool) (mainv%_44_0 Bool) (mainv%.71.i.i_0 Int) (mainv%.73.i.i_0 Int) (mainv%_45_0 Bool) (mainv%or.cond76.i.i_0 Bool) (mainv%.057.i.i_0 Int) (mainv%.053.i.i_0 Int) (mainv%.036.i.i_0 Int) (mainv%_73_0 Int) ) Bool
	true
)
(define-fun psi_f_0 ((mainv%_76_0 Int) (vfind_condition_0 Int) (mainv%loop.bound_0 Int) (mainv%_27_0 Int) (mainv%_32_0 Bool) (mainv%or.cond69.i.i_0 Bool) (mainv%or.cond70.i.i_0 Bool) (mainv%or.cond68.i.i_0 Bool) (mainv%Pivot104.i.i_0 Bool) (mainv%SwitchLeaf102.i.i_0 Bool) (mainv%SwitchLeaf100.i.i_0 Bool) (mainv%_40_0 Int) (mainv%_41_0 Bool) (mainv%..i.i_0 Int) (mainv%_43_0 Bool) (mainv%_44_0 Bool) (mainv%.71.i.i_0 Int) (mainv%.73.i.i_0 Int) (mainv%_45_0 Bool) (mainv%or.cond76.i.i_0 Bool) (mainv%.057.i.i_0 Int) (mainv%.053.i.i_0 Int) (mainv%.036.i.i_0 Int) (mainv%_73_0 Int) ) Bool
(and (mainv_75!_Else mainv%_76_0
                vfind_condition_0
                mainv%loop.bound_0
                mainv%_27_0
                mainv%_32_0
                mainv%or.cond69.i.i_0
                mainv%or.cond70.i.i_0
                mainv%or.cond68.i.i_0
                mainv%Pivot104.i.i_0
                mainv%SwitchLeaf102.i.i_0
                mainv%SwitchLeaf100.i.i_0
                mainv%_40_0
                mainv%_41_0
                mainv%..i.i_0
                mainv%_43_0
                mainv%_44_0
                mainv%.71.i.i_0
                mainv%.73.i.i_0
                mainv%_45_0
                mainv%or.cond76.i.i_0
                mainv%.057.i.i_0
                mainv%.053.i.i_0
                mainv%.036.i.i_0
                mainv%_73_0) (not (mainv_75!_Cond mainv%_76_0
                vfind_condition_0
                mainv%loop.bound_0
                mainv%_27_0
                mainv%_32_0
                mainv%or.cond69.i.i_0
                mainv%or.cond70.i.i_0
                mainv%or.cond68.i.i_0
                mainv%Pivot104.i.i_0
                mainv%SwitchLeaf102.i.i_0
                mainv%SwitchLeaf100.i.i_0
                mainv%_40_0
                mainv%_41_0
                mainv%..i.i_0
                mainv%_43_0
                mainv%_44_0
                mainv%.71.i.i_0
                mainv%.73.i.i_0
                mainv%_45_0
                mainv%or.cond76.i.i_0
                mainv%.057.i.i_0
                mainv%.053.i.i_0
                mainv%.036.i.i_0
                mainv%_73_0)))
)
(define-fun psi_t_0 ((mainv%_76_0 Int) (vfind_condition_0 Int) (mainv%loop.bound_0 Int) (mainv%_27_0 Int) (mainv%_32_0 Bool) (mainv%or.cond69.i.i_0 Bool) (mainv%or.cond70.i.i_0 Bool) (mainv%or.cond68.i.i_0 Bool) (mainv%Pivot104.i.i_0 Bool) (mainv%SwitchLeaf102.i.i_0 Bool) (mainv%SwitchLeaf100.i.i_0 Bool) (mainv%_40_0 Int) (mainv%_41_0 Bool) (mainv%..i.i_0 Int) (mainv%_43_0 Bool) (mainv%_44_0 Bool) (mainv%.71.i.i_0 Int) (mainv%.73.i.i_0 Int) (mainv%_45_0 Bool) (mainv%or.cond76.i.i_0 Bool) (mainv%.057.i.i_0 Int) (mainv%.053.i.i_0 Int) (mainv%.036.i.i_0 Int) (mainv%_73_0 Int) ) Bool
(or (mainv_75!_Cond mainv%_76_0
                vfind_condition_0
                mainv%loop.bound_0
                mainv%_27_0
                mainv%_32_0
                mainv%or.cond69.i.i_0
                mainv%or.cond70.i.i_0
                mainv%or.cond68.i.i_0
                mainv%Pivot104.i.i_0
                mainv%SwitchLeaf102.i.i_0
                mainv%SwitchLeaf100.i.i_0
                mainv%_40_0
                mainv%_41_0
                mainv%..i.i_0
                mainv%_43_0
                mainv%_44_0
                mainv%.71.i.i_0
                mainv%.73.i.i_0
                mainv%_45_0
                mainv%or.cond76.i.i_0
                mainv%.057.i.i_0
                mainv%.053.i.i_0
                mainv%.036.i.i_0
                mainv%_73_0) (not (mainv_75!_Then mainv%_76_0
                vfind_condition_0
                mainv%loop.bound_0
                mainv%_27_0
                mainv%_32_0
                mainv%or.cond69.i.i_0
                mainv%or.cond70.i.i_0
                mainv%or.cond68.i.i_0
                mainv%Pivot104.i.i_0
                mainv%SwitchLeaf102.i.i_0
                mainv%SwitchLeaf100.i.i_0
                mainv%_40_0
                mainv%_41_0
                mainv%..i.i_0
                mainv%_43_0
                mainv%_44_0
                mainv%.71.i.i_0
                mainv%.73.i.i_0
                mainv%_45_0
                mainv%or.cond76.i.i_0
                mainv%.057.i.i_0
                mainv%.053.i.i_0
                mainv%.036.i.i_0
                mainv%_73_0)))
)
(declare-var mainv%_76_0 Int)
(declare-var vfind_condition_0 Int)
(declare-var mainv%loop.bound_0 Int)
(declare-var mainv%_27_0 Int)
(declare-var mainv%_32_0 Bool)
(declare-var mainv%or.cond69.i.i_0 Bool)
(declare-var mainv%or.cond70.i.i_0 Bool)
(declare-var mainv%or.cond68.i.i_0 Bool)
(declare-var mainv%Pivot104.i.i_0 Bool)
(declare-var mainv%SwitchLeaf102.i.i_0 Bool)
(declare-var mainv%SwitchLeaf100.i.i_0 Bool)
(declare-var mainv%_40_0 Int)
(declare-var mainv%_41_0 Bool)
(declare-var mainv%..i.i_0 Int)
(declare-var mainv%_43_0 Bool)
(declare-var mainv%_44_0 Bool)
(declare-var mainv%.71.i.i_0 Int)
(declare-var mainv%.73.i.i_0 Int)
(declare-var mainv%_45_0 Bool)
(declare-var mainv%or.cond76.i.i_0 Bool)
(declare-var mainv%.057.i.i_0 Int)
(declare-var mainv%.053.i.i_0 Int)
(declare-var mainv%.036.i.i_0 Int)
(declare-var mainv%_73_0 Int)
(constraint (=> (psi_f_0 mainv%_76_0 vfind_condition_0 mainv%loop.bound_0 mainv%_27_0 mainv%_32_0 mainv%or.cond69.i.i_0 mainv%or.cond70.i.i_0 mainv%or.cond68.i.i_0 mainv%Pivot104.i.i_0 mainv%SwitchLeaf102.i.i_0 mainv%SwitchLeaf100.i.i_0 mainv%_40_0 mainv%_41_0 mainv%..i.i_0 mainv%_43_0 mainv%_44_0 mainv%.71.i.i_0 mainv%.73.i.i_0 mainv%_45_0 mainv%or.cond76.i.i_0 mainv%.057.i.i_0 mainv%.053.i.i_0 mainv%.036.i.i_0 mainv%_73_0 ) (Condition_0 mainv%_76_0 vfind_condition_0 mainv%loop.bound_0 mainv%_27_0 mainv%_32_0 mainv%or.cond69.i.i_0 mainv%or.cond70.i.i_0 mainv%or.cond68.i.i_0 mainv%Pivot104.i.i_0 mainv%SwitchLeaf102.i.i_0 mainv%SwitchLeaf100.i.i_0 mainv%_40_0 mainv%_41_0 mainv%..i.i_0 mainv%_43_0 mainv%_44_0 mainv%.71.i.i_0 mainv%.73.i.i_0 mainv%_45_0 mainv%or.cond76.i.i_0 mainv%.057.i.i_0 mainv%.053.i.i_0 mainv%.036.i.i_0 mainv%_73_0 )))
(constraint (=> (Condition_0 mainv%_76_0 vfind_condition_0 mainv%loop.bound_0 mainv%_27_0 mainv%_32_0 mainv%or.cond69.i.i_0 mainv%or.cond70.i.i_0 mainv%or.cond68.i.i_0 mainv%Pivot104.i.i_0 mainv%SwitchLeaf102.i.i_0 mainv%SwitchLeaf100.i.i_0 mainv%_40_0 mainv%_41_0 mainv%..i.i_0 mainv%_43_0 mainv%_44_0 mainv%.71.i.i_0 mainv%.73.i.i_0 mainv%_45_0 mainv%or.cond76.i.i_0 mainv%.057.i.i_0 mainv%.053.i.i_0 mainv%.036.i.i_0 mainv%_73_0 ) (psi_t_0 mainv%_76_0 vfind_condition_0 mainv%loop.bound_0 mainv%_27_0 mainv%_32_0 mainv%or.cond69.i.i_0 mainv%or.cond70.i.i_0 mainv%or.cond68.i.i_0 mainv%Pivot104.i.i_0 mainv%SwitchLeaf102.i.i_0 mainv%SwitchLeaf100.i.i_0 mainv%_40_0 mainv%_41_0 mainv%..i.i_0 mainv%_43_0 mainv%_44_0 mainv%.71.i.i_0 mainv%.73.i.i_0 mainv%_45_0 mainv%or.cond76.i.i_0 mainv%.057.i.i_0 mainv%.053.i.i_0 mainv%.036.i.i_0 mainv%_73_0 )))
(synth-fun Condition_1 ((vfind_condition_0 Int) (mainv%loop.bound_0 Int) (mainv%_27_0 Int) (mainv%_32_0 Bool) (mainv%or.cond69.i.i_0 Bool) (mainv%or.cond70.i.i_0 Bool) (mainv%or.cond68.i.i_0 Bool) (mainv%Pivot104.i.i_0 Bool) (mainv%SwitchLeaf102.i.i_0 Bool) (mainv%SwitchLeaf100.i.i_0 Bool) (mainv%_40_0 Int) (mainv%_41_0 Bool) (mainv%..i.i_0 Int) (mainv%_43_0 Bool) (mainv%_44_0 Bool) (mainv%.71.i.i_0 Int) (mainv%.73.i.i_0 Int) (mainv%_45_0 Bool) (mainv%or.cond76.i.i_0 Bool) (mainv%.057.i.i_0 Int) (mainv%.053.i.i_0 Int) (mainv%.036.i.i_0 Int) (mainv%_73_0 Int) (mainv%.2.i.i_1 Int) ) Bool
)
(define-fun mainv_72!_Cond ((vfind_condition_0 Int) (mainv%loop.bound_0 Int) (mainv%_27_0 Int) (mainv%_32_0 Bool) (mainv%or.cond69.i.i_0 Bool) (mainv%or.cond70.i.i_0 Bool) (mainv%or.cond68.i.i_0 Bool) (mainv%Pivot104.i.i_0 Bool) (mainv%SwitchLeaf102.i.i_0 Bool) (mainv%SwitchLeaf100.i.i_0 Bool) (mainv%_40_0 Int) (mainv%_41_0 Bool) (mainv%..i.i_0 Int) (mainv%_43_0 Bool) (mainv%_44_0 Bool) (mainv%.71.i.i_0 Int) (mainv%.73.i.i_0 Int) (mainv%_45_0 Bool) (mainv%or.cond76.i.i_0 Bool) (mainv%.057.i.i_0 Int) (mainv%.053.i.i_0 Int) (mainv%.036.i.i_0 Int) (mainv%_73_0 Int) (mainv%.2.i.i_1 Int) ) Bool
	true
)
(define-fun mainv_75 ((mainv%.057.i.i_0 Int) (mainv%.053.i.i_0 Int) (mainv%.036.i.i_0 Int) (mainv%or.cond76.i.i_0 Bool) (mainv%_73_0 Int) (mainv%..i.i_0 Int) (vfind_condition_0 Int) (mainv%_45_0 Bool) (mainv%_27_0 Int) (mainv%.73.i.i_0 Int) (mainv%loop.bound_0 Int) (mainv%.71.i.i_0 Int) (mainv%_43_0 Bool) (mainv%_44_0 Bool) (mainv%_41_0 Bool) (mainv%_40_0 Int) (mainv%SwitchLeaf100.i.i_0 Bool) (mainv%SwitchLeaf102.i.i_0 Bool) (mainv%Pivot104.i.i_0 Bool) (mainv%or.cond68.i.i_0 Bool) (mainv%or.cond70.i.i_0 Bool) (mainv%or.cond69.i.i_0 Bool) (mainv%_32_0 Bool) ) Bool
	true
)
(define-fun mainv_78 ((mainv%.057.i.i_0 Int) (mainv%.053.i.i_0 Int) (mainv%or.cond76.i.i_0 Bool) (mainv%_73_0 Int) (mainv%..i.i_0 Int) (mainv%.2.i.i_1 Int) (vfind_condition_0 Int) (mainv%_45_0 Bool) (mainv%_27_0 Int) (mainv%.73.i.i_0 Int) (mainv%loop.bound_0 Int) (mainv%.71.i.i_0 Int) (mainv%_43_0 Bool) (mainv%_44_0 Bool) (mainv%_41_0 Bool) (mainv%_40_0 Int) (mainv%SwitchLeaf100.i.i_0 Bool) (mainv%SwitchLeaf102.i.i_0 Bool) (mainv%Pivot104.i.i_0 Bool) (mainv%or.cond68.i.i_0 Bool) (mainv%or.cond70.i.i_0 Bool) (mainv%or.cond69.i.i_0 Bool) (mainv%_32_0 Bool) ) Bool
	true
)
(define-fun psi_f_1 ((vfind_condition_0 Int) (mainv%loop.bound_0 Int) (mainv%_27_0 Int) (mainv%_32_0 Bool) (mainv%or.cond69.i.i_0 Bool) (mainv%or.cond70.i.i_0 Bool) (mainv%or.cond68.i.i_0 Bool) (mainv%Pivot104.i.i_0 Bool) (mainv%SwitchLeaf102.i.i_0 Bool) (mainv%SwitchLeaf100.i.i_0 Bool) (mainv%_40_0 Int) (mainv%_41_0 Bool) (mainv%..i.i_0 Int) (mainv%_43_0 Bool) (mainv%_44_0 Bool) (mainv%.71.i.i_0 Int) (mainv%.73.i.i_0 Int) (mainv%_45_0 Bool) (mainv%or.cond76.i.i_0 Bool) (mainv%.057.i.i_0 Int) (mainv%.053.i.i_0 Int) (mainv%.036.i.i_0 Int) (mainv%_73_0 Int) (mainv%.2.i.i_1 Int) ) Bool
(and (mainv_78 mainv%.057.i.i_0
          mainv%.053.i.i_0
          mainv%or.cond76.i.i_0
          mainv%_73_0
          mainv%..i.i_0
          mainv%.2.i.i_1
          vfind_condition_0
          mainv%_45_0
          mainv%_27_0
          mainv%.73.i.i_0
          mainv%loop.bound_0
          mainv%.71.i.i_0
          mainv%_43_0
          mainv%_44_0
          mainv%_41_0
          mainv%_40_0
          mainv%SwitchLeaf100.i.i_0
          mainv%SwitchLeaf102.i.i_0
          mainv%Pivot104.i.i_0
          mainv%or.cond68.i.i_0
          mainv%or.cond70.i.i_0
          mainv%or.cond69.i.i_0
          mainv%_32_0) (not (mainv_72!_Cond vfind_condition_0
                mainv%loop.bound_0
                mainv%_27_0
                mainv%_32_0
                mainv%or.cond69.i.i_0
                mainv%or.cond70.i.i_0
                mainv%or.cond68.i.i_0
                mainv%Pivot104.i.i_0
                mainv%SwitchLeaf102.i.i_0
                mainv%SwitchLeaf100.i.i_0
                mainv%_40_0
                mainv%_41_0
                mainv%..i.i_0
                mainv%_43_0
                mainv%_44_0
                mainv%.71.i.i_0
                mainv%.73.i.i_0
                mainv%_45_0
                mainv%or.cond76.i.i_0
                mainv%.057.i.i_0
                mainv%.053.i.i_0
                mainv%.036.i.i_0
                mainv%_73_0
                mainv%.2.i.i_1)))
)
(define-fun psi_t_1 ((vfind_condition_0 Int) (mainv%loop.bound_0 Int) (mainv%_27_0 Int) (mainv%_32_0 Bool) (mainv%or.cond69.i.i_0 Bool) (mainv%or.cond70.i.i_0 Bool) (mainv%or.cond68.i.i_0 Bool) (mainv%Pivot104.i.i_0 Bool) (mainv%SwitchLeaf102.i.i_0 Bool) (mainv%SwitchLeaf100.i.i_0 Bool) (mainv%_40_0 Int) (mainv%_41_0 Bool) (mainv%..i.i_0 Int) (mainv%_43_0 Bool) (mainv%_44_0 Bool) (mainv%.71.i.i_0 Int) (mainv%.73.i.i_0 Int) (mainv%_45_0 Bool) (mainv%or.cond76.i.i_0 Bool) (mainv%.057.i.i_0 Int) (mainv%.053.i.i_0 Int) (mainv%.036.i.i_0 Int) (mainv%_73_0 Int) (mainv%.2.i.i_1 Int) ) Bool
(or (mainv_72!_Cond vfind_condition_0
                mainv%loop.bound_0
                mainv%_27_0
                mainv%_32_0
                mainv%or.cond69.i.i_0
                mainv%or.cond70.i.i_0
                mainv%or.cond68.i.i_0
                mainv%Pivot104.i.i_0
                mainv%SwitchLeaf102.i.i_0
                mainv%SwitchLeaf100.i.i_0
                mainv%_40_0
                mainv%_41_0
                mainv%..i.i_0
                mainv%_43_0
                mainv%_44_0
                mainv%.71.i.i_0
                mainv%.73.i.i_0
                mainv%_45_0
                mainv%or.cond76.i.i_0
                mainv%.057.i.i_0
                mainv%.053.i.i_0
                mainv%.036.i.i_0
                mainv%_73_0
                mainv%.2.i.i_1) (not (mainv_75 mainv%.057.i.i_0
          mainv%.053.i.i_0
          mainv%.036.i.i_0
          mainv%or.cond76.i.i_0
          mainv%_73_0
          mainv%..i.i_0
          vfind_condition_0
          mainv%_45_0
          mainv%_27_0
          mainv%.73.i.i_0
          mainv%loop.bound_0
          mainv%.71.i.i_0
          mainv%_43_0
          mainv%_44_0
          mainv%_41_0
          mainv%_40_0
          mainv%SwitchLeaf100.i.i_0
          mainv%SwitchLeaf102.i.i_0
          mainv%Pivot104.i.i_0
          mainv%or.cond68.i.i_0
          mainv%or.cond70.i.i_0
          mainv%or.cond69.i.i_0
          mainv%_32_0)))
)
(declare-var mainv%.2.i.i_1 Int)
(constraint (=> (psi_f_1 vfind_condition_0 mainv%loop.bound_0 mainv%_27_0 mainv%_32_0 mainv%or.cond69.i.i_0 mainv%or.cond70.i.i_0 mainv%or.cond68.i.i_0 mainv%Pivot104.i.i_0 mainv%SwitchLeaf102.i.i_0 mainv%SwitchLeaf100.i.i_0 mainv%_40_0 mainv%_41_0 mainv%..i.i_0 mainv%_43_0 mainv%_44_0 mainv%.71.i.i_0 mainv%.73.i.i_0 mainv%_45_0 mainv%or.cond76.i.i_0 mainv%.057.i.i_0 mainv%.053.i.i_0 mainv%.036.i.i_0 mainv%_73_0 mainv%.2.i.i_1 ) (Condition_1 vfind_condition_0 mainv%loop.bound_0 mainv%_27_0 mainv%_32_0 mainv%or.cond69.i.i_0 mainv%or.cond70.i.i_0 mainv%or.cond68.i.i_0 mainv%Pivot104.i.i_0 mainv%SwitchLeaf102.i.i_0 mainv%SwitchLeaf100.i.i_0 mainv%_40_0 mainv%_41_0 mainv%..i.i_0 mainv%_43_0 mainv%_44_0 mainv%.71.i.i_0 mainv%.73.i.i_0 mainv%_45_0 mainv%or.cond76.i.i_0 mainv%.057.i.i_0 mainv%.053.i.i_0 mainv%.036.i.i_0 mainv%_73_0 mainv%.2.i.i_1 )))
(constraint (=> (Condition_1 vfind_condition_0 mainv%loop.bound_0 mainv%_27_0 mainv%_32_0 mainv%or.cond69.i.i_0 mainv%or.cond70.i.i_0 mainv%or.cond68.i.i_0 mainv%Pivot104.i.i_0 mainv%SwitchLeaf102.i.i_0 mainv%SwitchLeaf100.i.i_0 mainv%_40_0 mainv%_41_0 mainv%..i.i_0 mainv%_43_0 mainv%_44_0 mainv%.71.i.i_0 mainv%.73.i.i_0 mainv%_45_0 mainv%or.cond76.i.i_0 mainv%.057.i.i_0 mainv%.053.i.i_0 mainv%.036.i.i_0 mainv%_73_0 mainv%.2.i.i_1 ) (psi_t_1 vfind_condition_0 mainv%loop.bound_0 mainv%_27_0 mainv%_32_0 mainv%or.cond69.i.i_0 mainv%or.cond70.i.i_0 mainv%or.cond68.i.i_0 mainv%Pivot104.i.i_0 mainv%SwitchLeaf102.i.i_0 mainv%SwitchLeaf100.i.i_0 mainv%_40_0 mainv%_41_0 mainv%..i.i_0 mainv%_43_0 mainv%_44_0 mainv%.71.i.i_0 mainv%.73.i.i_0 mainv%_45_0 mainv%or.cond76.i.i_0 mainv%.057.i.i_0 mainv%.053.i.i_0 mainv%.036.i.i_0 mainv%_73_0 mainv%.2.i.i_1 )))
(synth-fun Condition_2 ((vfind_condition_0 Int) (mainv%loop.bound_0 Int) (mainv%_27_0 Int) (mainv%_32_0 Bool) (mainv%or.cond69.i.i_0 Bool) (mainv%or.cond70.i.i_0 Bool) (mainv%or.cond68.i.i_0 Bool) (mainv%Pivot104.i.i_0 Bool) (mainv%SwitchLeaf102.i.i_0 Bool) (mainv%SwitchLeaf100.i.i_0 Bool) (mainv%_40_0 Int) (mainv%_41_0 Bool) (mainv%..i.i_0 Int) (mainv%_43_0 Bool) (mainv%_44_0 Bool) (mainv%.71.i.i_0 Int) (mainv%.73.i.i_0 Int) (mainv%_45_0 Bool) (mainv%or.cond76.i.i_0 Bool) (mainv%.053.i.i_0 Int) (mainv%.036.i.i_0 Int) (mainv%_63_0 Int) ) Bool
)
(define-fun mainv_61!_Cond ((vfind_condition_0 Int) (mainv%loop.bound_0 Int) (mainv%_27_0 Int) (mainv%_32_0 Bool) (mainv%or.cond69.i.i_0 Bool) (mainv%or.cond70.i.i_0 Bool) (mainv%or.cond68.i.i_0 Bool) (mainv%Pivot104.i.i_0 Bool) (mainv%SwitchLeaf102.i.i_0 Bool) (mainv%SwitchLeaf100.i.i_0 Bool) (mainv%_40_0 Int) (mainv%_41_0 Bool) (mainv%..i.i_0 Int) (mainv%_43_0 Bool) (mainv%_44_0 Bool) (mainv%.71.i.i_0 Int) (mainv%.73.i.i_0 Int) (mainv%_45_0 Bool) (mainv%or.cond76.i.i_0 Bool) (mainv%.053.i.i_0 Int) (mainv%.036.i.i_0 Int) (mainv%_63_0 Int) ) Bool
	true
)
(define-fun mainv_122 ((mainv%.053.i.i_0 Int) (mainv%.036.i.i_0 Int) (mainv%or.cond76.i.i_0 Bool) (mainv%..i.i_0 Int) (vfind_condition_0 Int) (mainv%_45_0 Bool) (mainv%_27_0 Int) (mainv%_63_0 Int) (mainv%.73.i.i_0 Int) (mainv%loop.bound_0 Int) (mainv%.71.i.i_0 Int) (mainv%_43_0 Bool) (mainv%_44_0 Bool) (mainv%_41_0 Bool) (mainv%_40_0 Int) (mainv%SwitchLeaf100.i.i_0 Bool) (mainv%SwitchLeaf102.i.i_0 Bool) (mainv%Pivot104.i.i_0 Bool) (mainv%or.cond68.i.i_0 Bool) (mainv%or.cond70.i.i_0 Bool) (mainv%or.cond69.i.i_0 Bool) (mainv%_32_0 Bool) ) Bool
	true
)
(define-fun mainvverifier.error () Bool
	true
)
(define-fun psi_f_2 ((vfind_condition_0 Int) (mainv%loop.bound_0 Int) (mainv%_27_0 Int) (mainv%_32_0 Bool) (mainv%or.cond69.i.i_0 Bool) (mainv%or.cond70.i.i_0 Bool) (mainv%or.cond68.i.i_0 Bool) (mainv%Pivot104.i.i_0 Bool) (mainv%SwitchLeaf102.i.i_0 Bool) (mainv%SwitchLeaf100.i.i_0 Bool) (mainv%_40_0 Int) (mainv%_41_0 Bool) (mainv%..i.i_0 Int) (mainv%_43_0 Bool) (mainv%_44_0 Bool) (mainv%.71.i.i_0 Int) (mainv%.73.i.i_0 Int) (mainv%_45_0 Bool) (mainv%or.cond76.i.i_0 Bool) (mainv%.053.i.i_0 Int) (mainv%.036.i.i_0 Int) (mainv%_63_0 Int) ) Bool
(and mainvverifier.error (not (mainv_61!_Cond vfind_condition_0
                mainv%loop.bound_0
                mainv%_27_0
                mainv%_32_0
                mainv%or.cond69.i.i_0
                mainv%or.cond70.i.i_0
                mainv%or.cond68.i.i_0
                mainv%Pivot104.i.i_0
                mainv%SwitchLeaf102.i.i_0
                mainv%SwitchLeaf100.i.i_0
                mainv%_40_0
                mainv%_41_0
                mainv%..i.i_0
                mainv%_43_0
                mainv%_44_0
                mainv%.71.i.i_0
                mainv%.73.i.i_0
                mainv%_45_0
                mainv%or.cond76.i.i_0
                mainv%.053.i.i_0
                mainv%.036.i.i_0
                mainv%_63_0)))
)
(define-fun psi_t_2 ((vfind_condition_0 Int) (mainv%loop.bound_0 Int) (mainv%_27_0 Int) (mainv%_32_0 Bool) (mainv%or.cond69.i.i_0 Bool) (mainv%or.cond70.i.i_0 Bool) (mainv%or.cond68.i.i_0 Bool) (mainv%Pivot104.i.i_0 Bool) (mainv%SwitchLeaf102.i.i_0 Bool) (mainv%SwitchLeaf100.i.i_0 Bool) (mainv%_40_0 Int) (mainv%_41_0 Bool) (mainv%..i.i_0 Int) (mainv%_43_0 Bool) (mainv%_44_0 Bool) (mainv%.71.i.i_0 Int) (mainv%.73.i.i_0 Int) (mainv%_45_0 Bool) (mainv%or.cond76.i.i_0 Bool) (mainv%.053.i.i_0 Int) (mainv%.036.i.i_0 Int) (mainv%_63_0 Int) ) Bool
(or (mainv_61!_Cond vfind_condition_0
                mainv%loop.bound_0
                mainv%_27_0
                mainv%_32_0
                mainv%or.cond69.i.i_0
                mainv%or.cond70.i.i_0
                mainv%or.cond68.i.i_0
                mainv%Pivot104.i.i_0
                mainv%SwitchLeaf102.i.i_0
                mainv%SwitchLeaf100.i.i_0
                mainv%_40_0
                mainv%_41_0
                mainv%..i.i_0
                mainv%_43_0
                mainv%_44_0
                mainv%.71.i.i_0
                mainv%.73.i.i_0
                mainv%_45_0
                mainv%or.cond76.i.i_0
                mainv%.053.i.i_0
                mainv%.036.i.i_0
                mainv%_63_0) (not (mainv_122 mainv%.053.i.i_0
           mainv%.036.i.i_0
           mainv%or.cond76.i.i_0
           mainv%..i.i_0
           vfind_condition_0
           mainv%_45_0
           mainv%_27_0
           mainv%_63_0
           mainv%.73.i.i_0
           mainv%loop.bound_0
           mainv%.71.i.i_0
           mainv%_43_0
           mainv%_44_0
           mainv%_41_0
           mainv%_40_0
           mainv%SwitchLeaf100.i.i_0
           mainv%SwitchLeaf102.i.i_0
           mainv%Pivot104.i.i_0
           mainv%or.cond68.i.i_0
           mainv%or.cond70.i.i_0
           mainv%or.cond69.i.i_0
           mainv%_32_0)))
)
(declare-var mainv%_63_0 Int)
(constraint (=> (psi_f_2 vfind_condition_0 mainv%loop.bound_0 mainv%_27_0 mainv%_32_0 mainv%or.cond69.i.i_0 mainv%or.cond70.i.i_0 mainv%or.cond68.i.i_0 mainv%Pivot104.i.i_0 mainv%SwitchLeaf102.i.i_0 mainv%SwitchLeaf100.i.i_0 mainv%_40_0 mainv%_41_0 mainv%..i.i_0 mainv%_43_0 mainv%_44_0 mainv%.71.i.i_0 mainv%.73.i.i_0 mainv%_45_0 mainv%or.cond76.i.i_0 mainv%.053.i.i_0 mainv%.036.i.i_0 mainv%_63_0 ) (Condition_2 vfind_condition_0 mainv%loop.bound_0 mainv%_27_0 mainv%_32_0 mainv%or.cond69.i.i_0 mainv%or.cond70.i.i_0 mainv%or.cond68.i.i_0 mainv%Pivot104.i.i_0 mainv%SwitchLeaf102.i.i_0 mainv%SwitchLeaf100.i.i_0 mainv%_40_0 mainv%_41_0 mainv%..i.i_0 mainv%_43_0 mainv%_44_0 mainv%.71.i.i_0 mainv%.73.i.i_0 mainv%_45_0 mainv%or.cond76.i.i_0 mainv%.053.i.i_0 mainv%.036.i.i_0 mainv%_63_0 )))
(constraint (=> (Condition_2 vfind_condition_0 mainv%loop.bound_0 mainv%_27_0 mainv%_32_0 mainv%or.cond69.i.i_0 mainv%or.cond70.i.i_0 mainv%or.cond68.i.i_0 mainv%Pivot104.i.i_0 mainv%SwitchLeaf102.i.i_0 mainv%SwitchLeaf100.i.i_0 mainv%_40_0 mainv%_41_0 mainv%..i.i_0 mainv%_43_0 mainv%_44_0 mainv%.71.i.i_0 mainv%.73.i.i_0 mainv%_45_0 mainv%or.cond76.i.i_0 mainv%.053.i.i_0 mainv%.036.i.i_0 mainv%_63_0 ) (psi_t_2 vfind_condition_0 mainv%loop.bound_0 mainv%_27_0 mainv%_32_0 mainv%or.cond69.i.i_0 mainv%or.cond70.i.i_0 mainv%or.cond68.i.i_0 mainv%Pivot104.i.i_0 mainv%SwitchLeaf102.i.i_0 mainv%SwitchLeaf100.i.i_0 mainv%_40_0 mainv%_41_0 mainv%..i.i_0 mainv%_43_0 mainv%_44_0 mainv%.71.i.i_0 mainv%.73.i.i_0 mainv%_45_0 mainv%or.cond76.i.i_0 mainv%.053.i.i_0 mainv%.036.i.i_0 mainv%_63_0 )))
(check-synth)
